letting n =  10
letting blocks =  [[1, 1], [1, 8], [2, 6], [2, 7], [3, 2], [3, 5], [3, 10], [4, 7], [4, 8], [4, 10], [5, 3], [5, 5], [5, 6], [6, 3], [6, 7], [7, 4], [7, 6], [7, 8], [7, 10], [8, 1], [8, 2], [8, 4], [8, 10], [9, 10], [10, 5], [10, 10]]
